; benchmark generated from python API
(set-info :status unknown)
(declare-datatypes ((RealState 0)) (((RMk1 (rval1 Real)) (RMk2 (rval2 Real)))))
 (assert
 (forall ((|v17:0| Real) )(forall ((|v16:1| Real) )(forall ((|v15:2| Real) )(forall ((|v14:3| Real) )(forall ((|v13:4| Real) )(forall ((|v12:5| Real) )(exists ((|v11:6_st| RealState) (val!7806 Real) )(exists ((|v10:7_st| RealState) (val!7807 Real) )(exists ((|v9:8_st| RealState) (val!7808 Real) )(exists ((|v8:9_st| RealState) (val!7809 Real) )(exists ((|v7:10_st| RealState) (val!7810 Real) )(exists ((|v6:11_st| RealState) (val!7811 Real) )(forall ((|v5:12| Real) )(forall ((|v4:13| Real) )(forall ((|v3:14| Real) )(forall ((|v2:15| Real) )(forall ((|v1:16| Real) )(forall ((|v0:17| Real) )(let ((?x1999 (* 8.0 |v4:13|)))
 (let ((?x1672 (+ (+ (+ (* (- 14.0) |v2:15|) (* 0.0 (rval2 |v9:8_st|))) (* 5.0 |v0:17|)) ?x1999)))
 (let ((?x772 (- 12.0)))
 (let ((?x741 (* 12.0 |v15:2|)))
 (let ((?x580 (+ (+ (* 10.0 |v2:15|) (* (- 15.0) (rval2 |v6:11_st|))) (* (- 18.0) |v17:0|))))
 (let ((?x2195 (rval2 |v8:9_st|)))
 (let ((?x2821 (* 3.0 ?x2195)))
 (let ((?x1321 (+ (+ (+ (* (- 5.0) |v16:1|) (* (- 11.0) |v4:13|)) (* 17.0 |v4:13|)) ?x2821)))
 (let ((?x1283 (- 8.0)))
 (let ((?x1889 (* 13.0 |v0:17|)))
 (let ((?x1946 (+ (+ (+ (* 11.0 |v15:2|) (* 10.0 |v4:13|)) (* (- 11.0) ?x2195)) ?x1889)))
 (let ((?x808 (rval2 |v6:11_st|)))
 (let ((?x540 (* 7.0 ?x808)))
 (let ((?x2196 (+ (* (- 11.0) |v3:14|) (* (- 3.0) |v3:14|))))
 (let ((?x1279 (+ (+ (* (- 14.0) |v13:4|) (* (- 2.0) |v2:15|)) (* (- 15.0) (rval2 |v7:10_st|)))))
 (let (($x1655 (or (<= (+ ?x1279 (* 16.0 (rval2 |v11:6_st|))) 18.0) (<= (+ (+ ?x2196 ?x540) (* (- 16.0) (rval2 |v9:8_st|))) 10.0))))
 (let ((?x203 (* (- 17.0) |v1:16|)))
 (let ((?x1460 (+ (+ (+ (* (- 9.0) |v4:13|) (* (- 13.0) |v12:5|)) ?x203) (* 0.0 |v14:3|))))
 (let ((?x1568 (- 11.0)))
 (let ((?x2517 (- 15.0)))
 (let ((?x213 (* ?x2517 |v0:17|)))
 (let ((?x3105 (+ ?x213 (* (- 10.0) |v2:15|))))
 (let (($x2548 (and (<= (+ (+ ?x3105 (* (- 1.0) |v15:2|)) (* (- 6.0) |v15:2|)) ?x1568) (<= ?x1460 14.0))))
 (let ((?x2922 (* ?x772 |v0:17|)))
 (let ((?x2682 (- 1.0)))
 (let ((?x325 (* ?x2682 |v4:13|)))
 (let (($x2472 (<= (+ (+ (+ (* 19.0 (rval2 |v7:10_st|)) (* (- 5.0) |v16:1|)) ?x325) ?x2922) 17.0)))
 (let (($x2893 (and (or $x2472 $x2548) (or $x1655 (and (<= ?x1946 ?x1283) (<= ?x1321 4.0))))))
 (let ((?x610 (- 4.0)))
 (let ((?x607 (* 4.0 |v13:4|)))
 (let ((?x814 (+ (+ (+ (* 19.0 (rval2 |v10:7_st|)) (* (- 9.0) |v3:14|)) (* ?x1568 |v12:5|)) ?x607)))
 (let ((?x2454 (- 18.0)))
 (let ((?x1497 (* 19.0 ?x2195)))
 (let ((?x2194 (+ (+ (* 8.0 (rval2 |v7:10_st|)) (* ?x2517 (rval2 |v9:8_st|))) (* ?x2682 (rval2 |v7:10_st|)))))
 (let ((?x2111 (* ?x610 |v0:17|)))
 (let ((?x2205 (+ (+ (+ (* 19.0 |v5:12|) (* (- 14.0) |v1:16|)) (* 14.0 (rval2 |v7:10_st|))) ?x2111)))
 (let ((?x2039 (+ (+ (+ (* 3.0 |v14:3|) (* 19.0 (rval2 |v9:8_st|))) ?x213) (* 20.0 |v13:4|))))
 (let ((?x1319 (- 9.0)))
 (let ((?x3484 (rval2 |v9:8_st|)))
 (let ((?x2803 (+ (+ (+ (* 13.0 |v13:4|) (* 13.0 ?x3484)) (* (- 7.0) |v3:14|)) ?x3484)))
 (let ((?x2452 (- 7.0)))
 (let (($x1264 (<= (+ (+ (+ (* ?x2517 ?x808) ?x540) (* 14.0 |v15:2|)) (* (- 5.0) |v16:1|)) ?x2452)))
 (let (($x819 (or (and $x1264 (and (<= ?x2803 ?x1319) (<= ?x2039 18.0))) (or (<= ?x2205 16.0) (and (<= (+ ?x2194 ?x1497) ?x2454) (<= ?x814 ?x610))))))
 (let ((?x1034 (- 19.0)))
 (let ((?x2216 (* 17.0 |v14:3|)))
 (let (($x2657 (<= (+ (+ (+ (* 11.0 |v2:15|) (* 14.0 ?x808)) (* ?x2682 |v3:14|)) ?x2216) ?x1034)))
 (let (($x2208 (or (and (and $x2657 $x819) (or $x2893 (<= (+ ?x580 ?x741) ?x772))) (<= ?x1672 8.0))))
 (let (($x785 (not (= |v6:11_st| (RMk1 val!7811)))))
 (let (($x1017 (not (= |v7:10_st| (RMk1 val!7810)))))
 (let (($x2912 (not (= |v8:9_st| (RMk1 val!7809)))))
 (let (($x2702 (not (= |v9:8_st| (RMk1 val!7808)))))
 (let (($x1978 (not (= |v10:7_st| (RMk1 val!7807)))))
 (let (($x891 (not (= |v11:6_st| (RMk1 val!7806)))))
 (and $x891 $x1978 $x2702 $x2912 $x1017 $x785 $x2208)))))))))))))))))))))))))))))))))))))))))))))))))))))))
 )
 )
 )
 )
 )
 )
 )
 )
 )
 )
 )
 )
 )
 )
 )
 )
 )
 )
(check-sat)
